# Solution for model r5_t36_m8_5
# Finished Task: 31 / 36
# Makespan: 634.0, Total Distance: 1451.0, Total Time: 1.0645
# R O S F
0 0 19 0.0 0.0
1 1 12 0.0 0.0
2 2 15 0.0 0.0
3 3 32 0.0 0.0
4 4 36 0.0 0.0
5 4 28 426.0 452.0
6 2 39 305.0 327.0
7 3 21 481.0 512.0
8 0 31 362.0 382.0
9 1 24 476.0 514.0
10 1 9 397.0 436.0
11 0 -1 541.0 578.0
12 1 23 26.0 61.0
13 -1 -1 -1.0 -1.0
14 4 -1 519.0 557.0
15 2 6 269.0 293.0
16 2 -1 597.0 627.0
17 -1 -1 -1.0 -1.0
18 4 5 378.0 401.0
19 0 8 179.0 206.0
20 3 30 314.0 353.0
21 3 -1 595.0 634.0
22 4 18 271.0 310.0
23 1 34 164.0 202.0
24 1 -1 538.0 564.0
25 2 16 539.0 560.0
26 0 11 497.0 517.0
27 2 37 410.0 431.0
28 4 14 461.0 492.0
29 -1 -1 -1.0 -1.0
30 3 7 405.0 438.0
31 0 26 437.0 457.0
32 3 35 132.0 171.0
33 2 27 370.0 396.0
34 1 10 251.0 290.0
35 3 20 230.0 251.0
36 4 22 82.0 112.0
37 2 25 452.0 485.0
38 -1 -1 -1.0 -1.0
39 2 33 335.0 359.0
40 -1 -1 -1.0 -1.0
